0	346	296	0	200
1	348	6	0	200
2	229	336	0	200
3	7	357	0	200
4	28	65	0	200
5	323	198	0	200
6	418	186	0	200
7	487	103	0	200
8	309	61	0	200
9	250	488	0	200
10	123	2	0	200
11	311	145	0	200
12	209	482	0	200
13	175	170	0	200
14	230	183	0	200
15	464	250	0	200
16	273	27	0	200
17	312	302	0	200
18	282	351	0	200
19	197	272	0	200
20	66	104	0	200
21	123	172	0	200
22	219	355	0	200
23	232	170	0	200
24	489	458	0	200
